Geographic Exponential Decay
80 217 200 117 44 133 7 204 72 150 98 61 232 147 6 298 32 238 12 3 303 112 233 307 96 170 179 313 281 24 63 108 34 113 4 300 195 27 256 2 36 167 294 106 118 295 103 220 287 153 197 51 245 207 215 218 20 248 52 39 139 14 280 180 74 120 206 241 239 246 202 165 46 40 251 240 271 47 23 189 60
p edge 320 322
e 0 245 98.0
e 1 60 100.0
e 1 0 2.0
e 2 159 58.0
e 2 42 33.0
e 2 267 19.0
e 2 1 68.0
e 3 303 71.0
e 3 173 55.0
e 3 116 88.0
e 3 2 11.0
e 4 5 15.0
e 4 15 24.0
e 4 126 44.0
e 4 3 97.0
e 6 171 73.0
e 6 7 71.0
e 6 272 78.0
e 6 4 6.0
e 7 55 9.0
e 7 52 36.0
e 8 271 17.0
e 8 6 100.0
e 9 138 1.0
e 9 8 20.0
e 10 100 1.0
e 10 9 1.0
e 11 32 9.0
e 11 10 2.0
e 12 88 12.0
e 12 282 42.0
e 12 14 62.0
e 12 11 92.0
e 13 264 1.0
e 13 12 10.0
e 14 22 21.0
e 14 57 13.0
e 16 49 1.0
e 16 13 8.0
e 17 18 3.0
e 17 16 1.0
e 19 20 81.0
e 20 275 81.0
e 20 298 95.0
e 21 198 2.0
e 21 17 1.0
e 23 172 51.0
e 23 193 60.0
e 23 229 11.0
e 23 21 19.0
e 24 25 39.0
e 24 120 94.0
e 24 128 65.0
e 24 23 5.0
e 26 109 5.0
e 26 24 37.0
e 27 108 84.0
e 27 130 70.0
e 27 36 84.0
e 27 26 50.0
e 28 150 36.0
e 28 27 4.0
e 29 194 1.0
e 29 28 2.0
e 30 31 1.0
e 30 29 4.0
e 32 33 16.0
e 32 157 66.0
e 34 158 14.0
e 34 216 19.0
e 34 207 84.0
e 34 30 63.0
e 35 36 4.0
e 36 142 68.0
e 37 296 23.0
e 37 34 12.0
e 38 75 4.0
e 38 37 1.0
e 39 195 49.0
e 39 114 40.0
e 39 53 98.0
e 39 38 41.0
e 40 268 22.0
e 40 41 16.0
e 40 244 1.0
e 40 39 62.0
e 43 140 1.0
e 43 40 10.0
e 44 285 16.0
e 44 65 32.0
e 44 174 94.0
e 44 43 92.0
e 45 120 63.0
e 46 56 5.0
e 46 89 87.0
e 46 54 29.0
e 46 44 90.0
e 47 226 97.0
e 47 71 6.0
e 47 48 7.0
e 47 46 68.0
e 50 51 15.0
e 51 185 66.0
e 51 217 81.0
e 52 251 2.0
e 52 90 52.0
e 58 59 1.0
e 58 47 64.0
e 60 233 8.0
e 60 223 38.0
e 61 62 53.0
e 61 123 8.0
e 61 179 4.0
e 63 263 64.0
e 63 64 62.0
e 63 66 3.0
e 63 58 90.0
e 67 202 51.0
e 67 63 72.0
e 68 129 1.0
e 68 67 4.0
e 69 70 1.0
e 69 68 3.0
e 72 73 10.0
e 72 115 21.0
e 72 74 88.0
e 72 69 93.0
e 74 162 65.0
e 74 153 34.0
e 76 258 12.0
e 76 72 49.0
e 77 78 5.0
e 77 76 5.0
e 79 292 3.0
e 79 77 5.0
e 80 91 1.0
e 80 79 1.0
e 81 286 5.0
e 81 80 3.0
e 82 102 1.0
e 82 81 2.0
e 83 299 3.0
e 83 82 1.0
e 84 276 5.0
e 84 83 3.0
e 85 86 10.0
e 85 84 6.0
e 87 92 19.0
e 87 85 8.0
e 92 101 43.0
e 93 273 3.0
e 93 87 1.0
e 94 95 5.0
e 94 93 1.0
e 96 97 15.0
e 96 189 43.0
e 96 103 47.0
e 96 94 51.0
e 98 260 24.0
e 98 160 8.0
e 98 99 100.0
e 98 96 64.0
e 103 163 47.0
e 103 318 76.0
e 104 202 22.0
e 105 190 8.0
e 105 98 50.0
e 106 252 69.0
e 106 107 33.0
e 106 108 14.0
e 108 110 17.0
e 111 125 3.0
e 111 105 10.0
e 112 117 78.0
e 112 113 55.0
e 112 118 21.0
e 112 111 59.0
e 113 117 16.0
e 113 256 67.0
e 117 274 46.0
e 118 261 93.0
e 118 131 94.0
e 119 120 78.0
e 121 122 7.0
e 121 112 56.0
e 124 197 86.0
e 127 214 2.0
e 127 121 8.0
e 132 316 1.0
e 132 127 5.0
e 133 134 69.0
e 133 212 63.0
e 133 135 7.0
e 133 132 50.0
e 136 266 1.0
e 136 133 96.0
e 137 139 16.0
e 137 136 1.0
e 139 141 10.0
e 139 284 34.0
e 143 144 6.0
e 143 137 1.0
e 145 146 19.0
e 145 143 2.0
e 147 215 100.0
e 147 310 24.0
e 147 148 72.0
e 147 145 91.0
e 149 277 2.0
e 149 147 94.0
e 150 151 56.0
e 150 219 35.0
e 152 153 96.0
e 153 154 21.0
e 155 156 4.0
e 155 149 6.0
e 161 164 2.0
e 161 155 1.0
e 165 166 53.0
e 165 167 30.0
e 165 175 27.0
e 165 161 9.0
e 167 168 35.0
e 167 169 50.0
e 170 308 17.0
e 170 189 29.0
e 170 176 17.0
e 177 178 25.0
e 177 165 27.0
e 179 199 36.0
e 179 207 92.0
e 180 181 88.0
e 180 182 54.0
e 180 183 65.0
e 180 177 38.0
e 184 186 2.0
e 184 180 42.0
e 187 188 5.0
e 187 184 3.0
e 189 191 18.0
e 192 293 9.0
e 192 187 1.0
e 195 311 98.0
e 195 196 6.0
e 197 200 6.0
e 197 201 43.0
e 200 265 83.0
e 200 202 82.0
e 203 204 11.0
e 204 205 40.0
e 204 206 23.0
e 206 207 87.0
e 206 305 99.0
e 208 209 1.0
e 208 192 5.0
e 210 211 4.0
e 210 208 1.0
e 213 215 23.0
e 215 236 68.0
e 217 218 22.0
e 217 247 18.0
e 218 283 5.0
e 218 233 31.0
e 220 221 25.0
e 220 222 26.0
e 220 224 36.0
e 220 210 79.0
e 225 226 36.0
e 225 227 4.0
e 228 230 1.0
e 228 220 27.0
e 231 232 53.0
e 232 233 86.0
e 232 309 88.0
e 234 235 3.0
e 234 228 4.0
e 237 238 78.0
e 238 239 84.0
e 238 240 60.0
e 239 240 22.0
e 239 251 77.0
e 240 294 75.0
e 241 242 24.0
e 241 243 57.0
e 241 245 82.0
e 245 288 92.0
e 246 248 50.0
e 246 249 19.0
e 246 250 60.0
e 248 251 40.0
e 248 253 55.0
e 254 304 7.0
e 254 234 2.0
e 255 256 24.0
e 256 257 88.0
e 259 262 1.0
e 259 254 4.0
e 269 270 2.0
e 269 259 2.0
e 271 312 65.0
e 271 278 19.0
e 279 295 19.0
e 280 281 28.0
e 280 287 70.0
e 280 289 20.0
e 280 269 30.0
e 281 287 88.0
e 281 290 40.0
e 287 291 20.0
e 294 295 14.0
e 294 297 33.0
e 295 298 93.0
e 298 300 22.0
e 300 301 53.0
e 300 302 65.0
e 303 306 63.0
e 303 307 63.0
e 307 313 61.0
e 307 314 96.0
e 313 315 97.0
e 313 317 57.0
e 319 280 19.0
